db/data/16321393515383542087774304122916920.z3.out
sat
-------------------
128.800336401
